% Auto-generated by scripts/generate_dzn.py
% problem_type   = regex
% instance       = regex_1
% source_json    = instances_json/1_medium_blowup/regex_1.json
% blowup         = 2.0
% representation = DFA

mode = 0;

var_count = 19;
n_constraints = 2;
Q = 28;
S = 2;
q0 = [1, 1];
F = [{17, 18, 19, 20, 21, 22, 23, 24, 25, 26, 27, 28}, {15}];
weights = [9, 10, 1, 2, 9, 4, 6, 3, 5, 1, 9, 4, 4, 2, 3, 3, 5, 3, 10];
d_dfa = array3d(1..2, 1..28, 1..2, [
  % k = 1
    1, 2,
    1, 3,
    5, 4,
    7, 6,
    9, 8,
    11, 10,
    13, 12,
    15, 14,
    15, 16,
    18, 17,
    20, 19,
    22, 21,
    22, 23,
    25, 24,
    27, 26,
    27, 28,
    18, 17,
    20, 19,
    22, 21,
    22, 23,
    25, 24,
    27, 26,
    27, 28,
    7, 6,
    9, 8,
    1, 3,
    1, 2,
    5, 4,

  % k = 2
    1, 2,
    2, 3,
    3, 4,
    4, 5,
    5, 6,
    6, 7,
    7, 8,
    8, 9,
    9, 10,
    10, 11,
    11, 12,
    12, 13,
    13, 14,
    14, 15,
    15, 16,
    16, 16,
    0, 0,
    0, 0,
    0, 0,
    0, 0,
    0, 0,
    0, 0,
    0, 0,
    0, 0,
    0, 0,
    0, 0,
    0, 0,
    0, 0
]);
d_nfa = array3d(1..2, 1..28, 1..2, [
  % k = 1
    {}, {},
    {}, {},
    {}, {},
    {}, {},
    {}, {},
    {}, {},
    {}, {},
    {}, {},
    {}, {},
    {}, {},
    {}, {},
    {}, {},
    {}, {},
    {}, {},
    {}, {},
    {}, {},
    {}, {},
    {}, {},
    {}, {},
    {}, {},
    {}, {},
    {}, {},
    {}, {},
    {}, {},
    {}, {},
    {}, {},
    {}, {},
    {}, {},

  % k = 2
    {}, {},
    {}, {},
    {}, {},
    {}, {},
    {}, {},
    {}, {},
    {}, {},
    {}, {},
    {}, {},
    {}, {},
    {}, {},
    {}, {},
    {}, {},
    {}, {},
    {}, {},
    {}, {},
    {}, {},
    {}, {},
    {}, {},
    {}, {},
    {}, {},
    {}, {},
    {}, {},
    {}, {},
    {}, {},
    {}, {},
    {}, {},
    {}, {}
]);
